results/heuristics/cvrp_hgs/Vrp-Set-A-n33/Vrp-Set-A-n33-hgs/0.hgs1.vrp
NAME : 0
COMMENT : CVRP Instance
TYPE : CVRP
DIMENSION : 33
EDGE_WEIGHT_TYPE : EUC_2D
CAPACITY : 100
NODE_COORD_SECTION
1	0.042	0.068
2	0.077	0.097
3	0.028	0.064
4	0.077	0.039
5	0.032	0.033
6	0.032	0.008
7	0.042	0.092
8	0.008	0.003
9	0.007	0.014
10	0.082	0.017
11	0.048	0.013
12	0.053	0.082
13	0.039	0.027
14	0.007	0.024
15	0.067	0.098
16	0.054	0.052
17	0.072	0.043
18	0.073	0.003
19	0.059	0.077
20	0.058	0.097
21	0.023	0.043
22	0.068	0.098
23	0.047	0.062
24	0.052	0.072
25	0.032	0.088
26	0.039	0.007
27	0.017	0.008
28	0.038	0.007
29	0.058	0.074
30	0.082	0.067
31	0.042	0.007
32	0.068	0.082
33	0.007	0.048
DEMAND_SECTION
1	0
2	5
3	23
4	14
5	13
6	8
7	18
8	19
9	10
10	18
11	20
12	5
13	9
14	23
15	9
16	18
17	10
18	24
19	13
20	14
21	8
22	10
23	19
24	14
25	13
26	14
27	2
28	23
29	15
30	8
31	20
32	24
33	3
DEPOT_SECTION
1
-1
EOF
