results/heuristics/cvrp_hgs/Vrp-Set-A-n33/Vrp-Set-A-n33-hgs/0.hgs1.tour
Route #1: 12 5 26 7 8 13 32 2
Route #2: 20 4 27 25 30 10
Route #3: 15 17 9 3 16 29
Route #4: 22 28 18 23
Route #5: 24 6 19 14 21 1 31 11
Cost 0.66211
